; Benchmark for LTL-sketching problem
(set-logic QF_UF)
(set-info :status unknown)
(declare-fun z_0_0 () Bool)
(declare-fun z_0_1 () Bool)
(declare-fun z_0_13 () Bool)
(declare-fun z_0_25 () Bool)
(declare-fun z_0_37 () Bool)
(declare-fun z_0_50 () Bool)
(declare-fun z_0_56 () Bool)
(declare-fun z_0_70 () Bool)
(declare-fun z_0_83 () Bool)
(declare-fun z_0_98 () Bool)
(declare-fun z_0_104 () Bool)
(declare-fun z_2_0 () Bool)
(declare-fun z_0_2 () Bool)
(declare-fun z_2_1 () Bool)
(declare-fun z_0_3 () Bool)
(declare-fun z_2_2 () Bool)
(declare-fun z_0_4 () Bool)
(declare-fun z_2_3 () Bool)
(declare-fun z_0_5 () Bool)
(declare-fun z_2_4 () Bool)
(declare-fun z_0_6 () Bool)
(declare-fun z_2_5 () Bool)
(declare-fun z_0_7 () Bool)
(declare-fun z_2_6 () Bool)
(declare-fun z_0_8 () Bool)
(declare-fun z_2_7 () Bool)
(declare-fun z_0_9 () Bool)
(declare-fun z_2_8 () Bool)
(declare-fun z_0_10 () Bool)
(declare-fun z_2_9 () Bool)
(declare-fun z_0_11 () Bool)
(declare-fun z_2_10 () Bool)
(declare-fun z_0_12 () Bool)
(declare-fun z_2_11 () Bool)
(declare-fun z_2_12 () Bool)
(declare-fun z_0_14 () Bool)
(declare-fun z_2_13 () Bool)
(declare-fun z_0_15 () Bool)
(declare-fun z_2_14 () Bool)
(declare-fun z_0_16 () Bool)
(declare-fun z_2_15 () Bool)
(declare-fun z_0_17 () Bool)
(declare-fun z_2_16 () Bool)
(declare-fun z_0_18 () Bool)
(declare-fun z_2_17 () Bool)
(declare-fun z_0_19 () Bool)
(declare-fun z_2_18 () Bool)
(declare-fun z_0_20 () Bool)
(declare-fun z_2_19 () Bool)
(declare-fun z_0_21 () Bool)
(declare-fun z_2_20 () Bool)
(declare-fun z_0_22 () Bool)
(declare-fun z_2_21 () Bool)
(declare-fun z_0_23 () Bool)
(declare-fun z_2_22 () Bool)
(declare-fun z_0_24 () Bool)
(declare-fun z_2_23 () Bool)
(declare-fun z_2_24 () Bool)
(declare-fun z_0_26 () Bool)
(declare-fun z_2_25 () Bool)
(declare-fun z_0_27 () Bool)
(declare-fun z_2_26 () Bool)
(declare-fun z_0_28 () Bool)
(declare-fun z_2_27 () Bool)
(declare-fun z_0_29 () Bool)
(declare-fun z_2_28 () Bool)
(declare-fun z_0_30 () Bool)
(declare-fun z_2_29 () Bool)
(declare-fun z_0_31 () Bool)
(declare-fun z_2_30 () Bool)
(declare-fun z_0_32 () Bool)
(declare-fun z_2_31 () Bool)
(declare-fun z_0_33 () Bool)
(declare-fun z_2_32 () Bool)
(declare-fun z_0_34 () Bool)
(declare-fun z_2_33 () Bool)
(declare-fun z_0_35 () Bool)
(declare-fun z_2_34 () Bool)
(declare-fun z_0_36 () Bool)
(declare-fun z_2_35 () Bool)
(declare-fun z_2_36 () Bool)
(declare-fun z_0_38 () Bool)
(declare-fun z_2_37 () Bool)
(declare-fun z_0_39 () Bool)
(declare-fun z_2_38 () Bool)
(declare-fun z_0_40 () Bool)
(declare-fun z_2_39 () Bool)
(declare-fun z_0_41 () Bool)
(declare-fun z_2_40 () Bool)
(declare-fun z_0_42 () Bool)
(declare-fun z_2_41 () Bool)
(declare-fun z_0_43 () Bool)
(declare-fun z_2_42 () Bool)
(declare-fun z_0_44 () Bool)
(declare-fun z_2_43 () Bool)
(declare-fun z_0_45 () Bool)
(declare-fun z_2_44 () Bool)
(declare-fun z_0_46 () Bool)
(declare-fun z_2_45 () Bool)
(declare-fun z_0_47 () Bool)
(declare-fun z_2_46 () Bool)
(declare-fun z_0_48 () Bool)
(declare-fun z_2_47 () Bool)
(declare-fun z_0_49 () Bool)
(declare-fun z_2_48 () Bool)
(declare-fun z_2_49 () Bool)
(declare-fun z_0_51 () Bool)
(declare-fun z_2_50 () Bool)
(declare-fun z_0_52 () Bool)
(declare-fun z_2_51 () Bool)
(declare-fun z_0_53 () Bool)
(declare-fun z_2_52 () Bool)
(declare-fun z_0_54 () Bool)
(declare-fun z_2_53 () Bool)
(declare-fun z_0_55 () Bool)
(declare-fun z_2_54 () Bool)
(declare-fun z_2_55 () Bool)
(declare-fun z_0_57 () Bool)
(declare-fun z_2_56 () Bool)
(declare-fun z_0_58 () Bool)
(declare-fun z_2_57 () Bool)
(declare-fun z_0_59 () Bool)
(declare-fun z_2_58 () Bool)
(declare-fun z_0_60 () Bool)
(declare-fun z_2_59 () Bool)
(declare-fun z_0_61 () Bool)
(declare-fun z_2_60 () Bool)
(declare-fun z_0_62 () Bool)
(declare-fun z_2_61 () Bool)
(declare-fun z_0_63 () Bool)
(declare-fun z_2_62 () Bool)
(declare-fun z_0_64 () Bool)
(declare-fun z_2_63 () Bool)
(declare-fun z_0_65 () Bool)
(declare-fun z_2_64 () Bool)
(declare-fun z_0_66 () Bool)
(declare-fun z_2_65 () Bool)
(declare-fun z_0_67 () Bool)
(declare-fun z_2_66 () Bool)
(declare-fun z_0_68 () Bool)
(declare-fun z_2_67 () Bool)
(declare-fun z_0_69 () Bool)
(declare-fun z_2_68 () Bool)
(declare-fun z_2_69 () Bool)
(declare-fun z_0_71 () Bool)
(declare-fun z_2_70 () Bool)
(declare-fun z_0_72 () Bool)
(declare-fun z_2_71 () Bool)
(declare-fun z_0_73 () Bool)
(declare-fun z_2_72 () Bool)
(declare-fun z_0_74 () Bool)
(declare-fun z_2_73 () Bool)
(declare-fun z_0_75 () Bool)
(declare-fun z_2_74 () Bool)
(declare-fun z_0_76 () Bool)
(declare-fun z_2_75 () Bool)
(declare-fun z_0_77 () Bool)
(declare-fun z_2_76 () Bool)
(declare-fun z_0_78 () Bool)
(declare-fun z_2_77 () Bool)
(declare-fun z_0_79 () Bool)
(declare-fun z_2_78 () Bool)
(declare-fun z_0_80 () Bool)
(declare-fun z_2_79 () Bool)
(declare-fun z_0_81 () Bool)
(declare-fun z_2_80 () Bool)
(declare-fun z_0_82 () Bool)
(declare-fun z_2_81 () Bool)
(declare-fun z_2_82 () Bool)
(declare-fun z_0_84 () Bool)
(declare-fun z_2_83 () Bool)
(declare-fun z_0_85 () Bool)
(declare-fun z_2_84 () Bool)
(declare-fun z_0_86 () Bool)
(declare-fun z_2_85 () Bool)
(declare-fun z_0_87 () Bool)
(declare-fun z_2_86 () Bool)
(declare-fun z_0_88 () Bool)
(declare-fun z_2_87 () Bool)
(declare-fun z_0_89 () Bool)
(declare-fun z_2_88 () Bool)
(declare-fun z_0_90 () Bool)
(declare-fun z_2_89 () Bool)
(declare-fun z_0_91 () Bool)
(declare-fun z_2_90 () Bool)
(declare-fun z_0_92 () Bool)
(declare-fun z_2_91 () Bool)
(declare-fun z_0_93 () Bool)
(declare-fun z_2_92 () Bool)
(declare-fun z_0_94 () Bool)
(declare-fun z_2_93 () Bool)
(declare-fun z_0_95 () Bool)
(declare-fun z_2_94 () Bool)
(declare-fun z_0_96 () Bool)
(declare-fun z_2_95 () Bool)
(declare-fun z_0_97 () Bool)
(declare-fun z_2_96 () Bool)
(declare-fun z_2_97 () Bool)
(declare-fun z_0_99 () Bool)
(declare-fun z_2_98 () Bool)
(declare-fun z_0_100 () Bool)
(declare-fun z_2_99 () Bool)
(declare-fun z_0_101 () Bool)
(declare-fun z_2_100 () Bool)
(declare-fun z_0_102 () Bool)
(declare-fun z_2_101 () Bool)
(declare-fun z_0_103 () Bool)
(declare-fun z_2_102 () Bool)
(declare-fun z_2_103 () Bool)
(declare-fun z_0_105 () Bool)
(declare-fun z_2_104 () Bool)
(declare-fun z_0_106 () Bool)
(declare-fun z_2_105 () Bool)
(declare-fun z_0_107 () Bool)
(declare-fun z_2_106 () Bool)
(declare-fun z_0_108 () Bool)
(declare-fun z_2_107 () Bool)
(declare-fun z_0_109 () Bool)
(declare-fun z_2_108 () Bool)
(declare-fun z_0_110 () Bool)
(declare-fun z_2_109 () Bool)
(declare-fun z_0_111 () Bool)
(declare-fun z_2_110 () Bool)
(declare-fun z_0_112 () Bool)
(declare-fun z_2_111 () Bool)
(declare-fun z_0_113 () Bool)
(declare-fun z_2_112 () Bool)
(declare-fun z_0_114 () Bool)
(declare-fun z_2_113 () Bool)
(declare-fun z_0_115 () Bool)
(declare-fun z_2_114 () Bool)
(declare-fun z_0_116 () Bool)
(declare-fun z_2_115 () Bool)
(declare-fun z_0_117 () Bool)
(declare-fun z_2_116 () Bool)
(declare-fun z_0_118 () Bool)
(declare-fun z_2_117 () Bool)
(declare-fun z_2_118 () Bool)
(declare-fun x_2_p () Bool)
(declare-fun x_2_-> () Bool)
(declare-fun x_2_U () Bool)
(declare-fun x_2_v () Bool)
(declare-fun x_2_& () Bool)
(declare-fun x_2_X () Bool)
(declare-fun x_2_! () Bool)
(declare-fun x_2_F () Bool)
(declare-fun x_2_G () Bool)
(assert
 z_0_0)
(assert
 (not z_0_1))
(assert
 (not z_0_13))
(assert
 (not z_0_25))
(assert
 (not z_0_37))
(assert
 (not z_0_50))
(assert
 (not z_0_56))
(assert
 (not z_0_70))
(assert
 (not z_0_83))
(assert
 (not z_0_98))
(assert
 (not z_0_104))
(assert
 (= z_0_0 (and z_2_0)))
(assert
 (= z_0_1 (and z_2_1 z_0_2)))
(assert
 (= z_0_2 (and z_2_2 z_0_3)))
(assert
 (= z_0_3 (and z_2_3 z_0_4)))
(assert
 (= z_0_4 (and z_2_4 z_0_5)))
(assert
 (= z_0_5 (and z_2_5 z_0_6)))
(assert
 (= z_0_6 (and z_2_6 z_0_7)))
(assert
 (= z_0_7 (and z_2_7 z_0_8)))
(assert
 (= z_0_8 (and z_2_8 z_0_9)))
(assert
 (= z_0_9 (and z_2_9 z_0_10)))
(assert
 (= z_0_10 (and z_2_10 z_0_11)))
(assert
 (= z_0_11 (and z_2_11 z_0_12)))
(assert
 (= z_0_12 (and z_2_12 z_2_6 z_2_7 z_2_8 z_2_9 z_2_10 z_2_11)))
(assert
 (= z_0_13 (and z_2_13 z_0_14)))
(assert
 (= z_0_14 (and z_2_14 z_0_15)))
(assert
 (= z_0_15 (and z_2_15 z_0_16)))
(assert
 (= z_0_16 (and z_2_16 z_0_17)))
(assert
 (= z_0_17 (and z_2_17 z_0_18)))
(assert
 (= z_0_18 (and z_2_18 z_0_19)))
(assert
 (= z_0_19 (and z_2_19 z_0_20)))
(assert
 (= z_0_20 (and z_2_20 z_0_21)))
(assert
 (= z_0_21 (and z_2_21 z_0_22)))
(assert
 (= z_0_22 (and z_2_22 z_0_23)))
(assert
 (= z_0_23 (and z_2_23 z_0_24)))
(assert
 (= z_0_24 (and z_2_24 z_2_19 z_2_20 z_2_21 z_2_22 z_2_23)))
(assert
 (= z_0_25 (and z_2_25 z_0_26)))
(assert
 (= z_0_26 (and z_2_26 z_0_27)))
(assert
 (= z_0_27 (and z_2_27 z_0_28)))
(assert
 (= z_0_28 (and z_2_28 z_0_29)))
(assert
 (= z_0_29 (and z_2_29 z_0_30)))
(assert
 (= z_0_30 (and z_2_30 z_0_31)))
(assert
 (= z_0_31 (and z_2_31 z_0_32)))
(assert
 (= z_0_32 (and z_2_32 z_0_33)))
(assert
 (= z_0_33 (and z_2_33 z_0_34)))
(assert
 (= z_0_34 (and z_2_34 z_0_35)))
(assert
 (= z_0_35 (and z_2_35 z_0_36)))
(assert
 (let (($x2545 (and z_2_36 z_2_29 z_2_30 z_2_31 z_2_32 z_2_33 z_2_34 z_2_35)))
 (= z_0_36 $x2545)))
(assert
 (= z_0_37 (and z_2_37 z_0_38)))
(assert
 (= z_0_38 (and z_2_38 z_0_39)))
(assert
 (= z_0_39 (and z_2_39 z_0_40)))
(assert
 (= z_0_40 (and z_2_40 z_0_41)))
(assert
 (= z_0_41 (and z_2_41 z_0_42)))
(assert
 (= z_0_42 (and z_2_42 z_0_43)))
(assert
 (= z_0_43 (and z_2_43 z_0_44)))
(assert
 (= z_0_44 (and z_2_44 z_0_45)))
(assert
 (= z_0_45 (and z_2_45 z_0_46)))
(assert
 (= z_0_46 (and z_2_46 z_0_47)))
(assert
 (= z_0_47 (and z_2_47 z_0_48)))
(assert
 (= z_0_48 (and z_2_48 z_0_49)))
(assert
 (let (($x2584 (and z_2_49 z_2_42 z_2_43 z_2_44 z_2_45 z_2_46 z_2_47 z_2_48)))
 (= z_0_49 $x2584)))
(assert
 (= z_0_50 (and z_2_50 z_0_51)))
(assert
 (= z_0_51 (and z_2_51 z_0_52)))
(assert
 (= z_0_52 (and z_2_52 z_0_53)))
(assert
 (= z_0_53 (and z_2_53 z_0_54)))
(assert
 (= z_0_54 (and z_2_54 z_0_55)))
(assert
 (= z_0_55 (and z_2_55 z_0_32)))
(assert
 (= z_0_56 (and z_2_56 z_0_57)))
(assert
 (= z_0_57 (and z_2_57 z_0_58)))
(assert
 (= z_0_58 (and z_2_58 z_0_59)))
(assert
 (= z_0_59 (and z_2_59 z_0_60)))
(assert
 (= z_0_60 (and z_2_60 z_0_61)))
(assert
 (= z_0_61 (and z_2_61 z_0_62)))
(assert
 (= z_0_62 (and z_2_62 z_0_63)))
(assert
 (= z_0_63 (and z_2_63 z_0_64)))
(assert
 (= z_0_64 (and z_2_64 z_0_65)))
(assert
 (= z_0_65 (and z_2_65 z_0_66)))
(assert
 (= z_0_66 (and z_2_66 z_0_67)))
(assert
 (= z_0_67 (and z_2_67 z_0_68)))
(assert
 (= z_0_68 (and z_2_68 z_0_69)))
(assert
 (let (($x2644 (and z_2_69 z_2_62 z_2_63 z_2_64 z_2_65 z_2_66 z_2_67 z_2_68)))
 (= z_0_69 $x2644)))
(assert
 (= z_0_70 (and z_2_70 z_0_71)))
(assert
 (= z_0_71 (and z_2_71 z_0_72)))
(assert
 (= z_0_72 (and z_2_72 z_0_73)))
(assert
 (= z_0_73 (and z_2_73 z_0_74)))
(assert
 (= z_0_74 (and z_2_74 z_0_75)))
(assert
 (= z_0_75 (and z_2_75 z_0_76)))
(assert
 (= z_0_76 (and z_2_76 z_0_77)))
(assert
 (= z_0_77 (and z_2_77 z_0_78)))
(assert
 (= z_0_78 (and z_2_78 z_0_79)))
(assert
 (= z_0_79 (and z_2_79 z_0_80)))
(assert
 (= z_0_80 (and z_2_80 z_0_81)))
(assert
 (= z_0_81 (and z_2_81 z_0_82)))
(assert
 (= z_0_82 (and z_2_82 z_2_77 z_2_78 z_2_79 z_2_80 z_2_81)))
(assert
 (= z_0_83 (and z_2_83 z_0_84)))
(assert
 (= z_0_84 (and z_2_84 z_0_85)))
(assert
 (= z_0_85 (and z_2_85 z_0_86)))
(assert
 (= z_0_86 (and z_2_86 z_0_87)))
(assert
 (= z_0_87 (and z_2_87 z_0_88)))
(assert
 (= z_0_88 (and z_2_88 z_0_89)))
(assert
 (= z_0_89 (and z_2_89 z_0_90)))
(assert
 (= z_0_90 (and z_2_90 z_0_91)))
(assert
 (= z_0_91 (and z_2_91 z_0_92)))
(assert
 (= z_0_92 (and z_2_92 z_0_93)))
(assert
 (= z_0_93 (and z_2_93 z_0_94)))
(assert
 (= z_0_94 (and z_2_94 z_0_95)))
(assert
 (= z_0_95 (and z_2_95 z_0_96)))
(assert
 (= z_0_96 (and z_2_96 z_0_97)))
(assert
 (let (($x2728 (and z_2_97 z_2_90 z_2_91 z_2_92 z_2_93 z_2_94 z_2_95 z_2_96)))
 (= z_0_97 $x2728)))
(assert
 (= z_0_98 (and z_2_98 z_0_99)))
(assert
 (= z_0_99 (and z_2_99 z_0_100)))
(assert
 (= z_0_100 (and z_2_100 z_0_101)))
(assert
 (= z_0_101 (and z_2_101 z_0_102)))
(assert
 (= z_0_102 (and z_2_102 z_0_103)))
(assert
 (= z_0_103 (and z_2_103 z_0_80)))
(assert
 (= z_0_104 (and z_2_104 z_0_105)))
(assert
 (= z_0_105 (and z_2_105 z_0_106)))
(assert
 (= z_0_106 (and z_2_106 z_0_107)))
(assert
 (= z_0_107 (and z_2_107 z_0_108)))
(assert
 (= z_0_108 (and z_2_108 z_0_109)))
(assert
 (= z_0_109 (and z_2_109 z_0_110)))
(assert
 (= z_0_110 (and z_2_110 z_0_111)))
(assert
 (= z_0_111 (and z_2_111 z_0_112)))
(assert
 (= z_0_112 (and z_2_112 z_0_113)))
(assert
 (= z_0_113 (and z_2_113 z_0_114)))
(assert
 (= z_0_114 (and z_2_114 z_0_115)))
(assert
 (= z_0_115 (and z_2_115 z_0_116)))
(assert
 (= z_0_116 (and z_2_116 z_0_117)))
(assert
 (= z_0_117 (and z_2_117 z_0_118)))
(assert
 (let (($x2791 (and z_2_118 z_2_111 z_2_112 z_2_113 z_2_114 z_2_115 z_2_116 z_2_117)))
 (= z_0_118 $x2791)))
(assert
 (and true true))
(assert
 (=> x_2_p z_2_0))
(assert
 (=> x_2_p z_2_1))
(assert
 (=> x_2_p z_2_2))
(assert
 (=> x_2_p z_2_3))
(assert
 (let (($x2822 (not z_2_4)))
 (=> x_2_p $x2822)))
(assert
 (=> x_2_p z_2_5))
(assert
 (let (($x2827 (not z_2_6)))
 (=> x_2_p $x2827)))
(assert
 (=> x_2_p z_2_7))
(assert
 (=> x_2_p z_2_8))
(assert
 (let (($x2834 (not z_2_9)))
 (=> x_2_p $x2834)))
(assert
 (let (($x2837 (not z_2_10)))
 (=> x_2_p $x2837)))
(assert
 (=> x_2_p z_2_11))
(assert
 (let (($x2842 (not z_2_12)))
 (=> x_2_p $x2842)))
(assert
 (let (($x2845 (not z_2_13)))
 (=> x_2_p $x2845)))
(assert
 (=> x_2_p z_2_14))
(assert
 (=> x_2_p z_2_15))
(assert
 (let (($x2852 (not z_2_16)))
 (=> x_2_p $x2852)))
(assert
 (=> x_2_p z_2_17))
(assert
 (=> x_2_p z_2_18))
(assert
 (=> x_2_p z_2_19))
(assert
 (let (($x2861 (not z_2_20)))
 (=> x_2_p $x2861)))
(assert
 (let (($x2864 (not z_2_21)))
 (=> x_2_p $x2864)))
(assert
 (let (($x2867 (not z_2_22)))
 (=> x_2_p $x2867)))
(assert
 (=> x_2_p z_2_23))
(assert
 (let (($x2872 (not z_2_24)))
 (=> x_2_p $x2872)))
(assert
 (=> x_2_p z_2_25))
(assert
 (let (($x2877 (not z_2_26)))
 (=> x_2_p $x2877)))
(assert
 (let (($x2880 (not z_2_27)))
 (=> x_2_p $x2880)))
(assert
 (=> x_2_p z_2_28))
(assert
 (=> x_2_p z_2_29))
(assert
 (let (($x2887 (not z_2_30)))
 (=> x_2_p $x2887)))
(assert
 (let (($x2890 (not z_2_31)))
 (=> x_2_p $x2890)))
(assert
 (let (($x2893 (not z_2_32)))
 (=> x_2_p $x2893)))
(assert
 (=> x_2_p z_2_33))
(assert
 (let (($x2898 (not z_2_34)))
 (=> x_2_p $x2898)))
(assert
 (=> x_2_p z_2_35))
(assert
 (let (($x2903 (not z_2_36)))
 (=> x_2_p $x2903)))
(assert
 (let (($x2906 (not z_2_37)))
 (=> x_2_p $x2906)))
(assert
 (let (($x2909 (not z_2_38)))
 (=> x_2_p $x2909)))
(assert
 (let (($x2912 (not z_2_39)))
 (=> x_2_p $x2912)))
(assert
 (let (($x2915 (not z_2_40)))
 (=> x_2_p $x2915)))
(assert
 (let (($x2918 (not z_2_41)))
 (=> x_2_p $x2918)))
(assert
 (=> x_2_p z_2_42))
(assert
 (=> x_2_p z_2_43))
(assert
 (=> x_2_p z_2_44))
(assert
 (let (($x2927 (not z_2_45)))
 (=> x_2_p $x2927)))
(assert
 (=> x_2_p z_2_46))
(assert
 (let (($x2932 (not z_2_47)))
 (=> x_2_p $x2932)))
(assert
 (=> x_2_p z_2_48))
(assert
 (=> x_2_p z_2_49))
(assert
 (let (($x2939 (not z_2_50)))
 (=> x_2_p $x2939)))
(assert
 (let (($x2942 (not z_2_51)))
 (=> x_2_p $x2942)))
(assert
 (=> x_2_p z_2_52))
(assert
 (=> x_2_p z_2_53))
(assert
 (=> x_2_p z_2_54))
(assert
 (=> x_2_p z_2_55))
(assert
 (=> x_2_p z_2_56))
(assert
 (=> x_2_p z_2_57))
(assert
 (=> x_2_p z_2_58))
(assert
 (=> x_2_p z_2_59))
(assert
 (let (($x2961 (not z_2_60)))
 (=> x_2_p $x2961)))
(assert
 (let (($x2964 (not z_2_61)))
 (=> x_2_p $x2964)))
(assert
 (let (($x2967 (not z_2_62)))
 (=> x_2_p $x2967)))
(assert
 (let (($x2970 (not z_2_63)))
 (=> x_2_p $x2970)))
(assert
 (=> x_2_p z_2_64))
(assert
 (let (($x2975 (not z_2_65)))
 (=> x_2_p $x2975)))
(assert
 (let (($x2978 (not z_2_66)))
 (=> x_2_p $x2978)))
(assert
 (=> x_2_p z_2_67))
(assert
 (let (($x2983 (not z_2_68)))
 (=> x_2_p $x2983)))
(assert
 (=> x_2_p z_2_69))
(assert
 (=> x_2_p z_2_70))
(assert
 (let (($x2990 (not z_2_71)))
 (=> x_2_p $x2990)))
(assert
 (=> x_2_p z_2_72))
(assert
 (=> x_2_p z_2_73))
(assert
 (=> x_2_p z_2_74))
(assert
 (=> x_2_p z_2_75))
(assert
 (=> x_2_p z_2_76))
(assert
 (let (($x3003 (not z_2_77)))
 (=> x_2_p $x3003)))
(assert
 (=> x_2_p z_2_78))
(assert
 (=> x_2_p z_2_79))
(assert
 (=> x_2_p z_2_80))
(assert
 (=> x_2_p z_2_81))
(assert
 (let (($x3014 (not z_2_82)))
 (=> x_2_p $x3014)))
(assert
 (let (($x3017 (not z_2_83)))
 (=> x_2_p $x3017)))
(assert
 (let (($x3020 (not z_2_84)))
 (=> x_2_p $x3020)))
(assert
 (=> x_2_p z_2_85))
(assert
 (=> x_2_p z_2_86))
(assert
 (let (($x3027 (not z_2_87)))
 (=> x_2_p $x3027)))
(assert
 (=> x_2_p z_2_88))
(assert
 (let (($x3032 (not z_2_89)))
 (=> x_2_p $x3032)))
(assert
 (let (($x3035 (not z_2_90)))
 (=> x_2_p $x3035)))
(assert
 (=> x_2_p z_2_91))
(assert
 (=> x_2_p z_2_92))
(assert
 (let (($x3042 (not z_2_93)))
 (=> x_2_p $x3042)))
(assert
 (let (($x3045 (not z_2_94)))
 (=> x_2_p $x3045)))
(assert
 (let (($x3048 (not z_2_95)))
 (=> x_2_p $x3048)))
(assert
 (let (($x3051 (not z_2_96)))
 (=> x_2_p $x3051)))
(assert
 (=> x_2_p z_2_97))
(assert
 (let (($x3056 (not z_2_98)))
 (=> x_2_p $x3056)))
(assert
 (let (($x3059 (not z_2_99)))
 (=> x_2_p $x3059)))
(assert
 (=> x_2_p z_2_100))
(assert
 (=> x_2_p z_2_101))
(assert
 (let (($x3066 (not z_2_102)))
 (=> x_2_p $x3066)))
(assert
 (let (($x3069 (not z_2_103)))
 (=> x_2_p $x3069)))
(assert
 (let (($x3072 (not z_2_104)))
 (=> x_2_p $x3072)))
(assert
 (=> x_2_p z_2_105))
(assert
 (let (($x3077 (not z_2_106)))
 (=> x_2_p $x3077)))
(assert
 (let (($x3080 (not z_2_107)))
 (=> x_2_p $x3080)))
(assert
 (=> x_2_p z_2_108))
(assert
 (let (($x3085 (not z_2_109)))
 (=> x_2_p $x3085)))
(assert
 (=> x_2_p z_2_110))
(assert
 (let (($x3090 (not z_2_111)))
 (=> x_2_p $x3090)))
(assert
 (=> x_2_p z_2_112))
(assert
 (let (($x3095 (not z_2_113)))
 (=> x_2_p $x3095)))
(assert
 (=> x_2_p z_2_114))
(assert
 (let (($x3100 (not z_2_115)))
 (=> x_2_p $x3100)))
(assert
 (=> x_2_p z_2_116))
(assert
 (=> x_2_p z_2_117))
(assert
 (let (($x3107 (not z_2_118)))
 (=> x_2_p $x3107)))
(assert
 (or x_2_p))
(assert
 (let (($x2811 (not x_2_->)))
 (let (($x2809 (not x_2_U)))
 (let (($x2807 (not x_2_v)))
 (let (($x2805 (not x_2_&)))
 (let (($x2803 (not x_2_X)))
 (let (($x2801 (not x_2_!)))
 (let (($x2799 (not x_2_F)))
 (let (($x2797 (not x_2_G)))
 (and $x2797 $x2799 $x2801 $x2803 $x2805 $x2807 $x2809 $x2811))))))))))
(check-sat)

